40
     1    79     1    18   100    96     4    21    76    98    30    45    67    57    68    25    37    99    86     2    80     1    28    18    18    96    17    19     1    69    54    53     6    58    20    73    39    54    71    35
     5    10    10     7     9     3    10     6     2     1     6     9     9     5     2     6     5     5     3     1     5     4     8     6     1     2    10     6     3     6     4     6     9     8     1     2     9     5     2     2
     0    61   361     0     0     0   327     0    25    76   323   152     1   190     0   126   278     0   277   227   248    35    93     0    45     0   248    68     0     0     0    49     0     0     0   231   297     0     0     0
